Si8                                     
   1.0000000000000000     
     5.4676676776069675    0.0000000000000000    0.0000000000000000
     0.0000000000000000    5.4676676776069675    0.0000000000000000
    -0.0000000000000000    0.0000000000000000    5.4676676776069675
   Si
     8
Direct
 -0.0000000000000000 -0.0000000000000000  0.5000000000000000
  0.7500000000000000  0.7500000000000000  0.7500000000000000
 -0.0000000000000000  0.5000000000000000 -0.0000000000000000
  0.7500000000000000  0.2500000000000000  0.2500000000000000
  0.5000000000000000 -0.0000000000000000 -0.0000000000000000
  0.2500000000000000  0.7500000000000000  0.2500000000000000
  0.5000000000000000  0.5000000000000000  0.5000000000000000
  0.2500000000000000  0.2500000000000000  0.7500000000000000

  0.00000000E+00  0.00000000E+00  0.00000000E+00
  0.00000000E+00  0.00000000E+00  0.00000000E+00
  0.00000000E+00  0.00000000E+00  0.00000000E+00
  0.00000000E+00  0.00000000E+00  0.00000000E+00
  0.00000000E+00  0.00000000E+00  0.00000000E+00
  0.00000000E+00  0.00000000E+00  0.00000000E+00
  0.00000000E+00  0.00000000E+00  0.00000000E+00
  0.00000000E+00  0.00000000E+00  0.00000000E+00
